
******************************************************************************
This program contains Ipopt, a library for large-scale nonlinear optimization.
 Ipopt is released as open source code under the Eclipse Public License (EPL).
         For more information visit http://projects.coin-or.org/Ipopt
******************************************************************************

This is Ipopt version 3.13.1, running with linear solver pardiso.

Number of nonzeros in equality constraint Jacobian...:        0
Number of nonzeros in inequality constraint Jacobian.:     3600
Number of nonzeros in Lagrangian Hessian.............:        0

Total number of variables............................:     3600
                     variables with only lower bounds:        0
                variables with lower and upper bounds:     3600
                     variables with only upper bounds:        0
Total number of equality constraints.................:        0
Total number of inequality constraints...............:        1
        inequality constraints with only lower bounds:        0
   inequality constraints with lower and upper bounds:        1
        inequality constraints with only upper bounds:        0

iter    objective    inf_pr   inf_du lg(mu)  ||d||  lg(rg) alpha_du alpha_pr  ls
   0  2.5523988e+08 1.50e-08 1.00e+02   0.0 0.00e+00    -  0.00e+00 0.00e+00   0
   1  2.5040268e+08 3.96e-08 6.94e+01  -6.3 1.94e+01    -  2.00e-02 4.27e-03f  1
   2  2.3414060e+08 0.00e+00 3.62e+01  -1.0 2.89e-01    -  7.26e-01 1.00e+00f  1
   3  2.2830610e+08 0.00e+00 1.23e+01  -0.9 7.77e-01    -  1.00e+00 3.87e-01f  1
   4  2.4136985e+08 1.02e-06 2.66e+08   1.1 5.85e+00    -  1.00e+00 1.33e-01f  1
   5  2.1430579e+08 1.59e-06 6.00e+01   1.0 5.92e-01    -  1.00e+00 1.00e+00f  1
   6  2.1379928e+08 1.25e-06 1.49e+05  -5.0 4.05e-01    -  5.30e-01 5.00e-01f  2
   7  2.1814400e+08 2.88e-07 9.11e+00   0.1 1.87e-01    -  9.95e-01 1.00e+00h  1
   8  2.1814010e+08 2.09e-07 6.00e+00  -5.9 2.20e-01    -  7.19e-01 5.07e-02f  5
   9  2.0562034e+08 0.00e+00 6.73e+00  -1.1 4.16e-01    -  7.44e-01 5.72e-01f  1
iter    objective    inf_pr   inf_du lg(mu)  ||d||  lg(rg) alpha_du alpha_pr  ls
  10  2.0168347e+08 0.00e+00 3.33e+00  -1.1 6.51e-01    -  8.70e-01 5.05e-01f  1
  11  1.9619970e+08 0.00e+00 2.50e+00  -1.2 5.08e-01    -  8.13e-01 5.97e-01f  1
  12  1.9055889e+08 0.00e+00 4.75e+00  -1.2 5.91e-01    -  6.81e-01 9.99e-01f  1
  13  1.9507273e+08 0.00e+00 5.29e+00   0.8 5.37e+01    -  1.50e-02 8.23e-03f  1
  14  1.9399035e+08 0.00e+00 6.44e+00  -0.9 1.02e+00    -  3.19e-01 4.10e-01f  1
  15  1.9311805e+08 0.00e+00 6.20e+00  -1.6 2.95e+00    -  3.13e-01 1.26e-01f  1
  16  1.9051565e+08 0.00e+00 5.81e+00  -2.4 1.12e+00    -  1.82e-01 3.73e-01f  1
  17  1.8933182e+08 0.00e+00 3.31e+00  -1.2 9.67e-01    -  9.84e-01 4.85e-01f  1
  18  1.8779124e+08 0.00e+00 1.33e+00  -1.6 4.57e-01    -  9.93e-01 5.18e-01f  1
  19  1.8592571e+08 0.00e+00 6.46e-01  -1.8 5.45e-01    -  9.30e-01 4.55e-01f  1
iter    objective    inf_pr   inf_du lg(mu)  ||d||  lg(rg) alpha_du alpha_pr  ls
  20  1.8429549e+08 0.00e+00 3.56e-01  -2.2 4.14e-01    -  9.95e-01 4.41e-01f  1
  21  1.8198780e+08 0.00e+00 6.57e-01  -2.4 5.17e-01    -  9.95e-01 5.78e-01f  1
  22  1.8104215e+08 0.00e+00 1.13e+00  -2.1 1.53e-01    -  1.00e+00 8.78e-01f  1
  23  1.8052065e+08 0.00e+00 1.82e+00  -1.8 3.27e-01    -  1.00e+00 8.88e-01f  1
  24  1.7918247e+08 0.00e+00 1.38e+00  -1.9 4.09e-01    -  9.19e-01 1.00e+00f  1
  25  1.8165285e+08 0.00e+00 3.02e-01  -1.6 4.90e-01    -  1.00e+00 1.00e+00f  1
  26  1.7927587e+08 0.00e+00 2.79e-01  -1.7 2.56e-01    -  1.00e+00 8.92e-01f  1
  27  1.7678760e+08 0.00e+00 3.93e-01  -2.6 2.89e-01    -  5.82e-01 6.85e-01f  1
  28  1.7612281e+08 0.00e+00 1.50e-01  -2.1 2.54e-01    -  9.69e-01 1.00e+00f  1
  29  1.7561380e+08 0.00e+00 1.62e-01  -2.2 2.98e-01    -  9.27e-01 1.00e+00f  1
iter    objective    inf_pr   inf_du lg(mu)  ||d||  lg(rg) alpha_du alpha_pr  ls
  30  1.7504684e+08 0.00e+00 1.29e-01  -2.3 3.60e-01    -  9.70e-01 8.51e-01f  1
  31  1.7455066e+08 0.00e+00 1.06e-01  -2.4 2.83e-01    -  9.85e-01 7.00e-01f  1
  32  1.7728476e+08 0.00e+00 5.46e-01  -1.5 1.28e+00    -  6.28e-01 2.24e-01f  1
  33  1.7773683e+08 0.00e+00 2.37e-01  -1.8 2.87e-01    -  1.00e+00 1.00e+00f  1
  34  1.7480281e+08 0.00e+00 2.63e-01  -2.7 2.95e-01    -  5.97e-01 1.00e+00f  1
  35  1.7424764e+08 0.00e+00 1.53e-01  -2.7 3.50e-01    -  5.48e-01 5.53e-01f  1
  36  1.7439478e+08 0.00e+00 8.68e-01  -2.4 4.05e-01    -  9.08e-01 1.00e+00f  1
  37  1.7409112e+08 0.00e+00 1.15e-01  -2.5 5.07e-01    -  4.01e-01 1.00e+00f  1
  38  1.7414997e+08 0.00e+00 6.93e-02  -2.4 1.67e-01    -  9.19e-01 1.00e+00f  1
  39  1.7385086e+08 0.00e+00 1.01e-01  -2.5 2.25e-01    -  7.24e-01 1.00e+00f  1
iter    objective    inf_pr   inf_du lg(mu)  ||d||  lg(rg) alpha_du alpha_pr  ls
  40  1.7379471e+08 0.00e+00 1.11e-01  -2.5 2.65e-01    -  7.88e-01 1.00e+00f  1
  41  1.7356489e+08 0.00e+00 9.97e-02  -2.6 1.92e-01    -  9.66e-01 1.00e+00f  1
  42  1.7607791e+08 0.00e+00 1.39e-01  -1.8 9.17e-01    -  4.91e-01 3.84e-01f  1
  43  1.7526691e+08 0.00e+00 4.00e-01  -2.1 3.37e-01    -  8.21e-01 1.00e+00f  1
  44  1.7480445e+08 0.00e+00 8.39e-02  -3.2 7.93e-01    -  2.26e-01 1.99e-01f  1
  45  1.7411417e+08 0.00e+00 4.51e-01  -3.2 3.71e-01    -  3.24e-01 3.72e-01f  1
  46  1.7346595e+08 0.00e+00 1.75e-01  -3.2 8.07e-01    -  3.80e-01 4.97e-01f  1
  47  1.7344494e+08 0.00e+00 7.23e-02  -2.6 4.89e-01    -  9.83e-01 1.00e+00f  1
  48  1.7302024e+08 0.00e+00 7.09e-02  -2.9 1.18e-01    -  9.86e-01 8.88e-01f  1
  49  1.7354592e+08 0.00e+00 1.18e-01  -2.0 9.59e-01    -  5.64e-01 1.27e-01f  1
iter    objective    inf_pr   inf_du lg(mu)  ||d||  lg(rg) alpha_du alpha_pr  ls
  50  1.7407395e+08 0.00e+00 2.07e-01  -2.4 3.56e-01    -  9.14e-01 1.00e+00f  1
  51  1.7336848e+08 0.00e+00 1.27e-01  -3.6 2.57e-01    -  4.44e-01 4.80e-01f  1
  52  1.7296251e+08 0.00e+00 2.14e-01  -3.6 1.37e+00    -  9.50e-02 4.45e-01f  1
  53  1.7317101e+08 0.00e+00 7.43e-02  -2.7 4.94e-01    -  8.47e-01 1.00e+00f  1
  54  1.7301101e+08 0.00e+00 1.13e-01  -2.8 1.66e-01    -  1.00e+00 8.92e-01f  1
  55  1.7300014e+08 0.00e+00 8.24e-02  -2.8 1.89e+00    -  2.38e-01 1.72e-01f  2
  56  1.7271540e+08 0.00e+00 8.98e-02  -4.2 2.31e-01    -  3.02e-01 4.32e-01f  1
  57  1.7308749e+08 0.00e+00 1.62e-01  -2.7 5.71e-01    -  1.00e+00 8.25e-01f  1
  58  1.7294191e+08 0.00e+00 1.81e-01  -2.8 2.29e-01    -  6.01e-01 1.00e+00f  1
  59  1.7292303e+08 0.00e+00 8.26e-02  -2.8 5.26e-01    -  2.37e-01 4.82e-01f  2
iter    objective    inf_pr   inf_du lg(mu)  ||d||  lg(rg) alpha_du alpha_pr  ls
  60  1.7269175e+08 0.00e+00 3.63e-02  -4.3 1.83e-01    -  6.01e-01 3.78e-01f  1
  61  1.7265119e+08 0.00e+00 9.26e-02  -3.1 5.03e-01    -  7.13e-01 4.27e-01f  1
  62  1.7253913e+08 0.00e+00 7.16e-02  -3.3 1.81e-01    -  9.91e-01 7.93e-01f  1
  63  1.7249946e+08 0.00e+00 5.36e-02  -3.5 4.17e-01    -  9.96e-01 2.01e-01f  1
  64  1.7246635e+08 0.00e+00 5.92e-02  -3.4 4.49e-01    -  9.35e-01 3.28e-01f  1
  65  1.7241599e+08 0.00e+00 4.99e-02  -3.7 2.83e-01    -  1.00e+00 3.38e-01f  1
  66  1.7243008e+08 0.00e+00 1.16e-01  -3.3 8.94e-01    -  1.00e+00 3.37e-01f  1
  67  1.7240980e+08 0.00e+00 5.43e-02  -3.4 2.58e-01    -  8.85e-01 5.99e-01f  1
  68  1.7239886e+08 0.00e+00 6.22e-02  -3.4 5.77e-01    -  9.96e-01 2.31e-01f  1
  69  1.7238300e+08 0.00e+00 5.75e-02  -3.5 5.09e-01    -  9.98e-01 2.38e-01f  1
iter    objective    inf_pr   inf_du lg(mu)  ||d||  lg(rg) alpha_du alpha_pr  ls
  70  1.7237009e+08 0.00e+00 1.44e-01  -3.5 9.55e-01    -  1.00e+00 2.80e-01f  1
  71  1.7236117e+08 0.00e+00 1.11e-01  -3.4 4.75e-01    -  9.88e-01 3.80e-01f  1
  72  1.7247465e+08 0.00e+00 3.18e-01  -2.9 1.06e+00    -  8.26e-01 3.04e-01f  1
  73  1.7250628e+08 0.00e+00 8.81e-02  -3.2 4.62e-01    -  4.17e-01 1.00e+00f  1
  74  1.7249196e+08 0.00e+00 4.44e-02  -3.2 2.16e-01    -  7.07e-01 5.85e-01f  1
  75  1.7249285e+08 0.00e+00 3.79e-02  -3.2 1.12e-01    -  1.00e+00 1.00e+00f  1
  76  1.7242388e+08 0.00e+00 2.77e-02  -4.8 3.99e-01    -  5.65e-01 2.18e-01f  1
  77  1.7236311e+08 0.00e+00 4.17e-02  -4.8 3.69e-01    -  4.55e-01 2.32e-01f  1
  78  1.7235256e+08 0.00e+00 1.23e-01  -4.8 1.13e+01    -  6.84e-02 6.01e-02f  1
  79  1.7237689e+08 0.00e+00 4.31e-02  -3.4 6.00e-01    -  1.00e+00 1.00e+00f  1
iter    objective    inf_pr   inf_du lg(mu)  ||d||  lg(rg) alpha_du alpha_pr  ls
  80  1.7233363e+08 0.00e+00 3.56e-02  -3.4 2.26e-01    -  1.00e+00 9.29e-01f  1
  81  1.7229289e+08 0.00e+00 5.52e-02  -3.6 3.59e-01    -  9.89e-01 7.87e-01f  1
  82  1.7227818e+08 0.00e+00 1.22e-01  -3.8 1.09e+00    -  9.99e-01 2.25e-01f  1
  83  1.7223517e+08 0.00e+00 5.11e-02  -4.0 1.52e-01    -  9.99e-01 5.62e-01f  1
  84  1.7224105e+08 0.00e+00 4.98e-02  -3.6 4.14e-01    -  8.66e-01 2.78e-01f  1
  85  1.7223782e+08 0.00e+00 3.84e-02  -3.8 1.74e+00    -  3.18e-01 8.53e-02f  1
  86  1.7223480e+08 0.00e+00 3.10e-02  -3.8 4.76e-01    -  7.50e-01 1.70e-01f  1
  87  1.7217256e+08 0.00e+00 4.74e-02  -4.5 4.53e-01    -  1.00e+00 8.43e-01f  1
  88  1.7217625e+08 0.00e+00 3.51e-02  -3.9 1.03e+00    -  1.00e+00 1.12e-01f  1
  89  1.7218648e+08 0.00e+00 1.33e-02  -4.0 5.47e-02    -  1.00e+00 1.00e+00f  1
iter    objective    inf_pr   inf_du lg(mu)  ||d||  lg(rg) alpha_du alpha_pr  ls
  90  1.7218634e+08 0.00e+00 9.34e-03  -4.0 2.29e-02    -  1.00e+00 1.00e+00f  1
  91  1.7218628e+08 0.00e+00 3.71e-03  -4.0 1.42e-02    -  1.00e+00 1.00e+00f  1
  92  1.7214909e+08 0.00e+00 9.34e-03  -6.1 2.20e-02    -  9.75e-01 8.65e-01f  1
  93  1.7214537e+08 0.00e+00 2.87e-02  -5.2 6.40e-02    -  9.98e-01 1.00e+00f  1
  94  1.7214527e+08 0.00e+00 5.35e-02  -4.9 1.20e+00    -  1.00e+00 7.41e-02f  1
  95  1.7214848e+08 0.00e+00 5.39e-02  -4.7 1.26e-01    -  1.00e+00 6.49e-01f  1
  96  1.7214838e+08 0.00e+00 4.42e-02  -4.9 2.41e-01    -  1.00e+00 5.38e-02f  1
  97  1.7214788e+08 0.00e+00 4.61e-02  -4.9 3.25e+00    -  3.35e-01 2.51e-02f  1
  98  1.7214767e+08 0.00e+00 4.87e-02  -4.9 2.27e-01    -  9.45e-01 5.00e-01f  2
  99  1.7214663e+08 0.00e+00 4.94e-02  -4.9 1.35e-01    -  1.00e+00 9.43e-01f  1
iter    objective    inf_pr   inf_du lg(mu)  ||d||  lg(rg) alpha_du alpha_pr  ls
 100  1.7214604e+08 0.00e+00 5.26e-02  -4.9 1.53e+01    -  6.06e-02 4.78e-03f  1

Number of Iterations....: 100

                                   (scaled)                 (unscaled)
Objective...............:   9.6159240200106387e+02    1.7214603896815628e+08
Dual infeasibility......:   5.2576197908509190e-02    9.4122875712423793e+03
Constraint violation....:   0.0000000000000000e+00    0.0000000000000000e+00
Complementarity.........:   2.5380157534368126e-05    4.5436024440680294e+00
Overall NLP error.......:   9.6382718678090489e-03    9.4122875712423793e+03


Number of objective function evaluations             = 110
Number of objective gradient evaluations             = 101
Number of equality constraint evaluations            = 0
Number of inequality constraint evaluations          = 110
Number of equality constraint Jacobian evaluations   = 0
Number of inequality constraint Jacobian evaluations = 101
Number of Lagrangian Hessian evaluations             = 0
Total CPU secs in IPOPT (w/o function evaluations)   =      2.648
Total CPU secs in NLP function evaluations           =     46.503

EXIT: Maximum Number of Iterations Exceeded.
